# Objective value = 1
C1,2 0
C1,7 0
C2,3 0
C2,8 0
C3,4 0
C3,9 0
C4,5 0
C4,10 0
C5,6 0
C5,11 0
C6,12 0
C7,8 0
C7,13 0
C8,9 0
C8,14 0
C9,10 0
C9,15 0
C10,11 0
C10,16 0
C11,12 0
C11,17 0
C12,18 0
C13,14 0
C13,19 0
C14,15 0
C14,20 0
C15,16 0
C15,21 0
C16,17 0
C16,22 1
C17,18 0
C17,23 0
C18,24 0
C19,20 0
C19,25 0
C20,21 0
C20,26 0
C21,22 0
C21,27 0
C22,23 0
C22,28 0
C23,24 0
C23,29 0
C24,30 0
C25,26 0
C25,31 0
C26,27 0
C26,32 0
C27,28 0
C27,33 0
C28,29 0
C28,34 0
C29,30 0
C29,35 0
C30,36 0
C31,32 0
C32,33 0
C33,34 0
C34,35 0
C35,36 0
Offset 0
A1,1 0
A1,2 0
A1,3 0
A1,4 0
A1,5 0
A1,6 0
A1,7 0
A1,8 0
A1,9 0
A1,10 0
A1,11 0
A1,12 0
A1,13 0
A1,14 0
A1,15 0
A1,16 0
A1,17 0
A1,18 0
A1,19 0
A1,20 0
A1,21 0
A1,22 0
A1,23 0
A1,24 0
A1,25 0
A1,26 0
A1,27 0
A1,28 1
A1,29 0
A1,30 0
A1,31 0
A1,32 0
A1,33 0
A1,34 0
A1,35 0
A1,36 0
A2,1 0
A2,2 0
A2,3 0
A2,4 0
A2,5 0
A2,6 0
A2,7 0
A2,8 0
A2,9 0
A2,10 0
A2,11 0
A2,12 0
A2,13 0
A2,14 0
A2,15 0
A2,16 0
A2,17 0
A2,18 0
A2,19 0
A2,20 0
A2,21 0
A2,22 1
A2,23 0
A2,24 0
A2,25 0
A2,26 0
A2,27 0
A2,28 0
A2,29 0
A2,30 0
A2,31 0
A2,32 0
A2,33 0
A2,34 0
A2,35 0
A2,36 0
A3,1 0
A3,2 0
A3,3 0
A3,4 0
A3,5 0
A3,6 0
A3,7 0
A3,8 0
A3,9 0
A3,10 0
A3,11 0
A3,12 0
A3,13 0
A3,14 0
A3,15 0
A3,16 0
A3,17 0
A3,18 0
A3,19 0
A3,20 0
A3,21 0
A3,22 0
A3,23 1
A3,24 0
A3,25 0
A3,26 0
A3,27 0
A3,28 0
A3,29 0
A3,30 0
A3,31 0
A3,32 0
A3,33 0
A3,34 0
A3,35 0
A3,36 0
A4,1 0
A4,2 0
A4,3 0
A4,4 0
A4,5 0
A4,6 0
A4,7 0
A4,8 0
A4,9 0
A4,10 0
A4,11 0
A4,12 0
A4,13 0
A4,14 0
A4,15 0
A4,16 0
A4,17 1
A4,18 0
A4,19 0
A4,20 0
A4,21 0
A4,22 0
A4,23 0
A4,24 0
A4,25 0
A4,26 0
A4,27 0
A4,28 0
A4,29 0
A4,30 0
A4,31 0
A4,32 0
A4,33 0
A4,34 0
A4,35 0
A4,36 0
A5,1 0
A5,2 0
A5,3 0
A5,4 0
A5,5 0
A5,6 0
A5,7 0
A5,8 0
A5,9 0
A5,10 0
A5,11 0
A5,12 0
A5,13 0
A5,14 0
A5,15 0
A5,16 1
A5,17 0
A5,18 0
A5,19 0
A5,20 0
A5,21 0
A5,22 0
A5,23 0
A5,24 0
A5,25 0
A5,26 0
A5,27 0
A5,28 0
A5,29 0
A5,30 0
A5,31 0
A5,32 0
A5,33 0
A5,34 0
A5,35 0
A5,36 0
A6,1 0
A6,2 0
A6,3 0
A6,4 0
A6,5 0
A6,6 0
A6,7 0
A6,8 0
A6,9 0
A6,10 1
A6,11 0
A6,12 0
A6,13 0
A6,14 0
A6,15 0
A6,16 0
A6,17 0
A6,18 0
A6,19 0
A6,20 0
A6,21 0
A6,22 0
A6,23 0
A6,24 0
A6,25 0
A6,26 0
A6,27 0
A6,28 0
A6,29 0
A6,30 0
A6,31 0
A6,32 0
A6,33 0
A6,34 0
A6,35 0
A6,36 0
I1 0
I2 0
I3 0
I4 0
I5 0
I6 0
I7 0
I8 0
I9 0
I10 0
I11 0
I12 0
I13 0
I14 0
I15 0
I16 1
I17 0
I18 0
I19 0
I20 0
I21 0
I22 1
I23 0
I24 0
I25 0
I26 0
I27 0
I28 0
I29 0
I30 0
I31 0
I32 0
I33 0
I34 0
I35 0
I36 0
